<number of tasks>
250

<cycle time>
1000

<order strength>
0.895


<task times>
1 138
2 116
3 128
4 203
5 86
6 55
7 134
8 152
9 130
10 271
11 146
12 204
13 106
14 140
15 21
16 99
17 166
18 104
19 74
20 280
21 165
22 77
23 203
24 54
25 92
26 144
27 94
28 173
29 109
30 97
31 28
32 255
33 227
34 119
35 72
36 105
37 92
38 32
39 208
40 28
41 218
42 113
43 98
44 70
45 90
46 183
47 123
48 261
49 164
50 126
51 197
52 65
53 206
54 58
55 200
56 87
57 52
58 269
59 307
60 171
61 138
62 73
63 102
64 165
65 174
66 100
67 79
68 65
69 62
70 56
71 144
72 191
73 262
74 161
75 67
76 185
77 161
78 154
79 50
80 246
81 77
82 128
83 213
84 236
85 85
86 160
87 37
88 61
89 195
90 222
91 137
92 158
93 121
94 47
95 36
96 155
97 218
98 63
99 65
100 105
101 45
102 124
103 216
104 50
105 146
106 96
107 105
108 138
109 337
110 284
111 141
112 79
113 43
114 136
115 154
116 127
117 99
118 54
119 29
120 146
121 180
122 197
123 273
124 177
125 164
126 192
127 54
128 106
129 101
130 190
131 21
132 133
133 63
134 90
135 111
136 164
137 121
138 234
139 96
140 162
141 146
142 178
143 258
144 165
145 186
146 180
147 132
148 259
149 66
150 67
151 75
152 37
153 73
154 76
155 59
156 92
157 110
158 100
159 147
160 300
161 121
162 36
163 40
164 169
165 71
166 32
167 281
168 169
169 67
170 159
171 167
172 97
173 138
174 159
175 36
176 262
177 124
178 450
179 123
180 110
181 75
182 212
183 78
184 225
185 314
186 107
187 178
188 52
189 100
190 232
191 62
192 83
193 85
194 69
195 47
196 84
197 71
198 44
199 56
200 231
201 105
202 136
203 261
204 194
205 48
206 271
207 74
208 146
209 300
210 182
211 54
212 186
213 134
214 268
215 40
216 223
217 169
218 309
219 153
220 55
221 64
222 101
223 24
224 125
225 157
226 190
227 174
228 164
229 49
230 193
231 41
232 145
233 44
234 119
235 96
236 102
237 129
238 179
239 221
240 362
241 241
242 229
243 103
244 64
245 130
246 78
247 160
248 29
249 67
250 101

<precedence relations>
1,7
1,8
2,4
2,5
3,4
3,5
3,6
3,7
3,8
4,9
4,10
4,11
4,12
5,9
5,10
5,11
5,12
6,9
6,10
6,11
6,12
7,9
7,10
7,11
7,12
8,9
8,10
8,11
8,12
9,13
9,14
9,15
9,16
9,17
10,13
10,14
10,15
10,16
10,17
11,13
11,14
11,15
11,16
12,13
12,14
12,15
12,17
13,19
13,21
14,91
15,18
15,19
15,20
15,21
16,18
16,19
16,20
16,21
17,20
18,22
18,23
18,24
18,25
19,22
19,23
19,24
19,25
20,23
20,31
20,32
21,22
21,23
21,24
21,25
22,26
22,27
22,31
22,32
23,26
23,27
23,28
23,30
24,26
24,27
24,28
24,31
24,32
25,26
25,27
25,28
25,29
25,30
25,31
26,33
26,34
26,35
26,36
27,33
27,34
27,35
27,36
28,33
28,34
29,33
29,34
29,35
29,36
30,45
30,47
31,108
31,122
31,132
32,33
32,34
33,37
33,38
34,37
34,39
34,47
35,37
35,38
35,39
35,40
35,41
36,37
36,38
36,39
36,40
36,41
37,42
37,43
37,48
38,42
38,43
38,44
38,45
38,48
39,42
39,43
39,46
40,42
40,44
41,42
41,43
41,44
41,45
41,47
42,52
42,56
43,49
44,49
44,50
44,51
44,52
44,53
45,49
45,50
45,51
45,52
45,53
46,50
46,56
46,57
47,49
47,50
47,51
47,52
47,53
48,49
48,50
48,51
48,52
48,53
49,54
49,55
49,56
49,57
50,54
51,54
51,55
51,56
51,57
52,82
52,83
52,84
53,54
53,55
53,56
53,57
54,58
54,59
54,60
54,61
55,58
55,59
55,60
55,61
56,58
56,59
56,60
56,61
57,58
57,59
57,60
57,61
58,62
58,63
58,64
58,65
58,66
59,62
59,63
59,64
59,65
59,66
60,62
60,63
60,64
60,65
61,64
62,69
62,73
63,67
63,70
63,72
64,67
64,68
64,69
64,73
65,67
65,68
65,69
65,71
65,72
65,73
66,67
67,102
67,103
67,106
67,108
68,74
68,75
68,76
68,77
69,74
69,75
69,76
69,77
70,74
70,75
71,74
71,75
71,76
72,74
72,76
73,74
73,76
73,83
74,78
74,80
74,81
74,87
74,88
75,82
75,83
75,84
76,78
76,79
76,80
76,81
77,78
77,80
77,84
77,87
78,85
78,86
78,92
79,85
79,86
80,146
81,85
82,85
82,86
82,87
82,88
83,85
83,88
83,92
84,85
84,86
84,88
84,92
85,89
85,90
85,91
85,93
86,89
86,91
87,92
88,89
88,93
89,94
89,95
89,96
89,97
90,94
90,95
91,94
91,95
92,94
92,95
92,96
92,97
93,94
93,97
94,99
95,98
95,99
95,100
95,101
95,102
95,103
96,98
96,99
96,100
96,102
97,98
97,103
98,106
98,108
99,104
99,105
99,106
100,104
100,105
100,112
100,121
101,104
101,105
101,106
101,107
101,108
102,104
102,105
102,123
102,124
102,129
103,107
104,131
105,128
106,109
106,110
106,111
106,112
107,109
107,110
107,112
108,109
109,114
109,115
109,128
110,113
110,114
110,115
110,116
110,117
111,113
111,114
111,115
111,116
111,117
112,113
112,114
112,115
112,116
113,118
114,174
115,174
115,181
116,118
116,119
116,122
117,118
117,120
117,121
118,123
118,125
118,129
119,125
119,126
119,148
120,123
120,124
120,126
121,123
121,128
122,124
122,127
123,132
124,151
125,203
125,209
126,130
126,137
127,130
127,131
127,146
127,147
128,130
128,147
129,130
129,131
129,132
130,133
130,134
130,135
130,136
131,133
131,134
131,137
131,154
132,133
132,134
132,135
132,136
132,138
133,142
133,143
133,157
134,139
135,139
135,154
136,139
136,154
137,163
138,139
138,140
138,141
139,143
139,144
139,145
140,193
141,146
141,147
143,149
144,169
144,171
145,150
146,148
147,148
147,149
148,151
148,154
149,153
150,151
150,152
150,167
151,155
151,157
152,155
152,156
152,158
152,168
153,155
153,159
154,188
155,189
156,160
156,161
157,170
157,171
158,176
159,162
160,170
160,187
161,163
161,164
161,165
161,166
162,163
162,164
162,167
162,168
163,171
164,169
165,197
165,200
166,170
166,180
166,187
167,183
167,198
168,169
169,172
169,173
169,174
170,174
171,172
171,173
171,174
172,175
172,176
172,178
173,175
173,176
173,177
174,175
175,179
175,191
176,202
176,208
177,181
177,182
178,180
179,183
179,184
179,188
180,186
181,185
182,183
182,184
182,187
183,213
184,202
185,191
186,204
187,190
188,189
188,192
189,195
189,196
190,194
191,193
191,194
191,195
191,196
192,193
192,194
193,199
193,218
193,219
194,197
194,200
195,197
195,198
197,202
198,201
198,209
199,209
200,210
201,203
202,204
202,205
202,206
203,207
203,208
204,224
205,207
205,209
207,211
207,224
208,210
208,215
209,235
210,212
210,226
211,213
212,214
212,216
213,215
213,217
214,237
215,218
215,219
215,221
216,220
217,222
218,223
218,225
219,227
219,228
220,223
220,224
221,250
222,226
223,229
226,230
226,232
227,231
228,231
228,233
229,235
229,237
229,238
230,234
232,236
233,237
235,242
236,240
237,247
237,250
238,239
238,240
238,241
239,245
240,244
241,243
242,246
243,247
243,248
244,250
245,249

<end>
